p edges 89 832
e 1 8
e 1 16
e 1 18
e 1 29
e 1 30
e 1 33
e 1 35
e 1 36
e 1 40
e 1 42
e 1 44
e 1 46
e 1 51
e 1 52
e 1 54
e 1 56
e 1 57
e 1 60
e 1 61
e 1 63
e 1 64
e 1 67
e 1 68
e 1 71
e 1 76
e 1 80
e 1 83
e 1 84
e 1 88
e 2 4
e 2 8
e 2 11
e 2 15
e 2 16
e 2 40
e 2 43
e 2 45
e 2 49
e 2 63
e 2 67
e 2 70
e 2 75
e 2 77
e 2 81
e 2 83
e 2 84
e 3 5
e 3 9
e 3 12
e 3 28
e 3 31
e 3 32
e 3 35
e 3 47
e 3 48
e 3 58
e 3 59
e 3 62
e 3 66
e 3 72
e 3 74
e 3 87
e 4 8
e 4 11
e 4 15
e 4 16
e 4 36
e 4 40
e 4 43
e 4 45
e 4 49
e 4 63
e 4 67
e 4 70
e 4 75
e 4 83
e 4 84
e 5 7
e 5 9
e 5 12
e 5 28
e 5 31
e 5 32
e 5 35
e 5 42
e 5 47
e 5 48
e 5 58
e 5 59
e 5 62
e 5 72
e 5 74
e 5 87
e 5 89
e 6 10
e 6 14
e 6 17
e 6 19
e 6 20
e 6 21
e 6 22
e 6 26
e 6 34
e 6 37
e 6 39
e 6 43
e 6 50
e 6 55
e 6 63
e 6 65
e 6 79
e 6 81
e 6 85
e 6 86
e 7 18
e 7 29
e 7 31
e 7 35
e 7 42
e 7 46
e 7 48
e 7 51
e 7 57
e 7 58
e 7 60
e 7 61
e 7 62
e 7 64
e 7 71
e 7 80
e 7 82
e 7 87
e 7 88
e 7 89
e 8 11
e 8 16
e 8 18
e 8 25
e 8 30
e 8 33
e 8 35
e 8 36
e 8 40
e 8 42
e 8 43
e 8 44
e 8 49
e 8 52
e 8 54
e 8 56
e 8 61
e 8 63
e 8 67
e 8 68
e 8 70
e 8 71
e 8 76
e 8 80
e 8 81
e 8 83
e 8 84
e 9 12
e 9 13
e 9 24
e 9 28
e 9 31
e 9 35
e 9 47
e 9 48
e 9 53
e 9 58
e 9 59
e 9 62
e 9 69
e 9 72
e 9 73
e 9 74
e 9 87
e 10 19
e 10 22
e 10 36
e 10 37
e 10 50
e 10 65
e 10 77
e 10 79
e 10 81
e 11 16
e 11 36
e 11 40
e 11 43
e 11 45
e 11 49
e 11 63
e 11 67
e 11 70
e 11 75
e 11 83
e 11 84
e 12 13
e 12 24
e 12 28
e 12 32
e 12 41
e 12 47
e 12 53
e 12 58
e 12 59
e 12 62
e 12 66
e 12 69
e 12 72
e 12 74
e 12 78
e 12 87
e 13 20
e 13 23
e 13 24
e 13 27
e 13 28
e 13 34
e 13 38
e 13 53
e 13 69
e 13 73
e 13 74
e 13 78
e 14 17
e 14 19
e 14 20
e 14 21
e 14 23
e 14 24
e 14 27
e 14 34
e 14 37
e 14 38
e 14 39
e 14 50
e 14 55
e 14 65
e 14 73
e 14 79
e 14 85
e 14 86
e 15 36
e 15 43
e 15 45
e 15 49
e 15 67
e 15 70
e 15 75
e 15 77
e 15 81
e 15 83
e 15 84
e 16 18
e 16 30
e 16 33
e 16 35
e 16 36
e 16 40
e 16 42
e 16 43
e 16 44
e 16 49
e 16 52
e 16 56
e 16 61
e 16 63
e 16 67
e 16 70
e 16 71
e 16 80
e 16 81
e 16 83
e 16 84
e 17 19
e 17 20
e 17 21
e 17 22
e 17 23
e 17 24
e 17 26
e 17 27
e 17 34
e 17 37
e 17 38
e 17 39
e 17 50
e 17 55
e 17 65
e 17 73
e 17 85
e 17 86
e 18 25
e 18 29
e 18 30
e 18 35
e 18 40
e 18 42
e 18 43
e 18 44
e 18 46
e 18 48
e 18 52
e 18 54
e 18 56
e 18 57
e 18 61
e 18 63
e 18 64
e 18 68
e 18 70
e 18 71
e 18 80
e 18 81
e 18 82
e 18 83
e 18 88
e 18 89
e 19 20
e 19 22
e 19 36
e 19 39
e 19 50
e 19 77
e 19 81
e 19 85
e 19 86
e 20 21
e 20 24
e 20 26
e 20 27
e 20 34
e 20 37
e 20 38
e 20 39
e 20 43
e 20 50
e 20 55
e 20 63
e 20 65
e 20 69
e 20 73
e 20 78
e 20 79
e 20 81
e 20 85
e 20 86
e 21 23
e 21 24
e 21 26
e 21 27
e 21 34
e 21 37
e 21 38
e 21 39
e 21 43
e 21 55
e 21 63
e 21 65
e 21 73
e 21 78
e 21 81
e 21 85
e 21 86
e 22 26
e 22 37
e 22 50
e 22 55
e 22 65
e 22 79
e 22 86
e 23 24
e 23 27
e 23 34
e 23 38
e 23 39
e 23 73
e 23 78
e 23 85
e 24 27
e 24 28
e 24 34
e 24 38
e 24 39
e 24 53
e 24 69
e 24 73
e 24 74
e 24 78
e 24 85
e 25 29
e 25 30
e 25 42
e 25 44
e 25 51
e 25 52
e 25 54
e 25 56
e 25 57
e 25 60
e 25 61
e 25 64
e 25 68
e 25 71
e 25 80
e 25 88
e 26 37
e 26 43
e 26 50
e 26 55
e 26 63
e 26 65
e 26 79
e 26 81
e 26 86
e 27 34
e 27 38
e 27 39
e 27 69
e 27 73
e 27 78
e 27 85
e 28 31
e 28 32
e 28 35
e 28 41
e 28 47
e 28 48
e 28 53
e 28 58
e 28 59
e 28 66
e 28 69
e 28 72
e 28 74
e 28 78
e 28 87
e 29 31
e 29 33
e 29 42
e 29 44
e 29 46
e 29 51
e 29 54
e 29 56
e 29 57
e 29 60
e 29 61
e 29 64
e 29 68
e 29 76
e 29 80
e 29 82
e 29 88
e 29 89
e 30 33
e 30 42
e 30 44
e 30 52
e 30 56
e 30 61
e 30 71
e 30 80
e 31 35
e 31 42
e 31 46
e 31 47
e 31 48
e 31 51
e 31 54
e 31 57
e 31 58
e 31 60
e 31 61
e 31 64
e 31 82
e 31 87
e 31 88
e 31 89
e 32 41
e 32 47
e 32 53
e 32 58
e 32 59
e 32 62
e 32 66
e 32 69
e 32 72
e 32 74
e 32 78
e 32 87
e 33 40
e 33 44
e 33 52
e 33 54
e 33 60
e 33 63
e 33 68
e 33 76
e 33 83
e 33 88
e 34 37
e 34 38
e 34 39
e 34 55
e 34 65
e 34 69
e 34 73
e 34 78
e 34 79
e 34 85
e 34 86
e 35 40
e 35 43
e 35 44
e 35 47
e 35 48
e 35 51
e 35 52
e 35 58
e 35 60
e 35 62
e 35 63
e 35 68
e 35 70
e 35 71
e 35 76
e 35 80
e 35 81
e 35 82
e 35 83
e 35 87
e 35 89
e 36 40
e 36 45
e 36 49
e 36 63
e 36 67
e 36 77
e 36 83
e 36 84
e 37 38
e 37 39
e 37 50
e 37 55
e 37 65
e 37 79
e 37 85
e 37 86
e 38 39
e 38 55
e 38 65
e 38 69
e 38 73
e 38 78
e 38 79
e 38 85
e 38 86
e 39 50
e 39 55
e 39 65
e 39 79
e 39 85
e 39 86
e 40 43
e 40 49
e 40 52
e 40 63
e 40 67
e 40 70
e 40 75
e 40 81
e 40 83
e 40 84
e 41 53
e 41 59
e 41 66
e 41 69
e 41 72
e 41 74
e 41 78
e 42 44
e 42 46
e 42 51
e 42 52
e 42 54
e 42 56
e 42 57
e 42 58
e 42 60
e 42 61
e 42 64
e 42 68
e 42 71
e 42 76
e 42 80
e 42 87
e 42 88
e 42 89
e 43 49
e 43 52
e 43 63
e 43 70
e 43 75
e 43 81
e 43 83
e 44 46
e 44 51
e 44 52
e 44 54
e 44 56
e 44 57
e 44 60
e 44 61
e 44 64
e 44 68
e 44 71
e 44 76
e 44 80
e 44 88
e 45 49
e 45 67
e 45 70
e 45 75
e 45 77
e 45 81
e 45 84
e 46 51
e 46 54
e 46 56
e 46 57
e 46 60
e 46 61
e 46 64
e 46 68
e 46 76
e 46 82
e 46 87
e 46 88
e 46 89
e 47 48
e 47 58
e 47 59
e 47 62
e 47 66
e 47 72
e 47 74
e 47 87
e 48 58
e 48 62
e 48 71
e 48 80
e 48 82
e 48 87
e 48 89
e 49 63
e 49 67
e 49 70
e 49 75
e 49 77
e 49 81
e 49 83
e 49 84
e 50 55
e 50 65
e 50 79
e 50 85
e 50 86
e 51 52
e 51 54
e 51 56
e 51 57
e 51 60
e 51 61
e 51 64
e 51 68
e 51 71
e 51 76
e 51 80
e 51 87
e 51 88
e 51 89
e 52 54
e 52 56
e 52 60
e 52 61
e 52 63
e 52 68
e 52 70
e 52 71
e 52 76
e 52 80
e 52 81
e 52 83
e 53 59
e 53 66
e 53 69
e 53 72
e 53 73
e 53 74
e 53 78
e 54 56
e 54 57
e 54 60
e 54 61
e 54 64
e 54 68
e 54 76
e 54 80
e 54 88
e 55 65
e 55 79
e 55 85
e 55 86
e 56 57
e 56 60
e 56 61
e 56 64
e 56 68
e 56 71
e 56 76
e 56 80
e 56 88
e 57 60
e 57 61
e 57 64
e 57 68
e 57 76
e 57 80
e 57 82
e 57 88
e 57 89
e 58 59
e 58 62
e 58 66
e 58 72
e 58 74
e 58 87
e 58 89
e 59 62
e 59 66
e 59 69
e 59 72
e 59 74
e 59 78
e 59 87
e 60 61
e 60 64
e 60 68
e 60 71
e 60 76
e 60 80
e 60 88
e 60 89
e 61 64
e 61 68
e 61 71
e 61 76
e 61 80
e 61 82
e 61 88
e 61 89
e 62 66
e 62 72
e 62 74
e 62 87
e 62 89
e 63 67
e 63 70
e 63 81
e 63 83
e 63 84
e 64 68
e 64 76
e 64 80
e 64 87
e 64 88
e 64 89
e 65 79
e 65 85
e 65 86
e 66 69
e 66 72
e 66 74
e 66 78
e 67 77
e 67 81
e 67 83
e 67 84
e 68 71
e 68 76
e 68 80
e 68 88
e 69 72
e 69 73
e 69 74
e 69 78
e 70 75
e 70 81
e 70 83
e 71 76
e 71 80
e 71 82
e 72 74
e 72 78
e 72 87
e 73 74
e 73 78
e 73 85
e 74 78
e 74 87
e 75 81
e 75 83
e 76 80
e 76 88
e 77 81
e 77 84
e 79 85
e 79 86
e 80 82
e 80 88
e 81 83
e 81 84
e 82 88
e 82 89
e 83 84
e 85 86
e 87 89
e 88 89
w 1 43
w 2 124
w 3 354
w 4 186
w 5 493
w 6 40
w 7 125
w 8 9
w 9 5
w 10 579
w 11 167
w 12 178
w 13 514
w 14 170
w 15 186
w 16 51
w 17 80
w 18 43
w 19 120
w 20 170
w 21 223
w 22 199
w 23 212
w 24 8
w 25 392
w 26 239
w 27 90
w 28 99
w 29 58
w 30 521
w 31 202
w 32 82
w 33 478
w 34 8
w 35 169
w 36 149
w 37 239
w 38 21
w 39 272
w 40 186
w 41 300
w 42 125
w 43 43
w 44 72
w 45 167
w 46 62
w 47 24
w 48 141
w 49 105
w 50 99
w 51 269
w 52 53
w 53 199
w 54 26
w 55 72
w 56 31
w 57 2
w 58 24
w 59 101
w 60 31
w 61 3
w 62 19
w 63 132
w 64 184
w 65 140
w 66 40
w 67 372
w 68 154
w 69 21
w 70 62
w 71 43
w 72 99
w 73 173
w 74 77
w 75 416
w 76 161
w 77 149
w 78 277
w 79 320
w 80 1
w 81 149
w 82 645
w 83 98
w 84 18
w 85 18
w 86 27
w 87 2
w 88 32
w 89 26
n 1 x103
n 2 x141
n 3 x156
n 4 x160
n 5 x177
n 6 x189
n 7 x192
n 8 x251
n 9 x253
n 10 x258
n 11 x284
n 12 x295
n 13 x302
n 14 x336
n 15 x380
n 16 x458
n 17 x472
n 18 x474
n 19 x478
n 20 x504
n 21 x527
n 22 x560
n 23 x563
n 24 x582
n 25 x593
n 26 x725
n 27 x745
n 28 x762
n 29 x786
n 30 x840
n 31 x888
n 32 x904
n 33 x989
n 34 x1003
n 35 x1052
n 36 x1086
n 37 x1179
n 38 x1213
n 39 x1220
n 40 x1224
n 41 x1315
n 42 x1401
n 43 x1404
n 44 x1413
n 45 x1421
n 46 x1450
n 47 x1452
n 48 x1518
n 49 x1522
n 50 x1524
n 51 x1538
n 52 x1685
n 53 x1702
n 54 x1714
n 55 x1722
n 56 x1735
n 57 x1750
n 58 x1835
n 59 x1875
n 60 x1882
n 61 x1898
n 62 x1907
n 63 x1930
n 64 x1935
n 65 x1994
n 66 x2003
n 67 x2010
n 68 x2025
n 69 x2034
n 70 x2087
n 71 x2107
n 72 x2143
n 73 x2179
n 74 x2191
n 75 x2206
n 76 x2263
n 77 x2272
n 78 x2288
n 79 x2305
n 80 x2347
n 81 x2372
n 82 x2387
n 83 x2408
n 84 x2411
n 85 x2417
n 86 x2420
n 87 x2422
n 88 x2438
n 89 x2443
o 1 103
o 2 141
o 3 156
o 4 160
o 5 177
o 6 189
o 7 192
o 8 251
o 9 253
o 10 258
o 11 284
o 12 295
o 13 302
o 14 336
o 15 380
o 16 458
o 17 472
o 18 474
o 19 478
o 20 504
o 21 527
o 22 560
o 23 563
o 24 582
o 25 593
o 26 725
o 27 745
o 28 762
o 29 786
o 30 840
o 31 888
o 32 904
o 33 989
o 34 1003
o 35 1052
o 36 1086
o 37 1179
o 38 1213
o 39 1220
o 40 1224
o 41 1315
o 42 1401
o 43 1404
o 44 1413
o 45 1421
o 46 1450
o 47 1452
o 48 1518
o 49 1522
o 50 1524
o 51 1538
o 52 1685
o 53 1702
o 54 1714
o 55 1722
o 56 1735
o 57 1750
o 58 1835
o 59 1875
o 60 1882
o 61 1898
o 62 1907
o 63 1930
o 64 1935
o 65 1994
o 66 2003
o 67 2010
o 68 2025
o 69 2034
o 70 2087
o 71 2107
o 72 2143
o 73 2179
o 74 2191
o 75 2206
o 76 2263
o 77 2272
o 78 2288
o 79 2305
o 80 2347
o 81 2372
o 82 2387
o 83 2408
o 84 2411
o 85 2417
o 86 2420
o 87 2422
o 88 2438
o 89 2443
